118  118  118  118  -1  
81  81  81  81  -1  
55  55  55  55  -1  
100  100  100  100  -1  
75  75  75  75  -1  
125  125  125  125  -1  
100  100  100  100  -1  
147  147  147  147  -1  
109  109  109  109  -1  
88  88  88  88  -1  
98  98  98  98  -1  
136  136  136  136  -1  
89  89  89  89  -1  
68  68  68  68  -1  
135  135  135  135  -1  
